%BLOCK LATTICE_CART
5.0 0.0 0.0
0.0 5.0 0.0
0.0 0.0 5.0
%ENDBLOCK LATTICE_CART

%BLOCK POSITIONS_ABS
H 0 0 0
H 1.5 0 0
%ENDBLOCK POSITIONS_ABS

kpoint_mp_grid 4 4 4 
fix_all_cell True
