##### Generated by aiida_castep 12:59:04 02/12/2019 GMT #####
#         author: Bonan Zhu (bz240@cam.ac.uk)
# # AiiDA User: Bonan Zhu (bz240@cam.ac.uk)
# AiiDA profile: demo
# Information of the calculation node
# label: Si SINGLEPOINT
# description:
# A Example CASTEP calculation for silicon
# 
## Information of input nodes used:
# 
# type: uuid: 8a404caa-94ca-4a0b-987e-181c75463547 (pk: 21509)
# pk: 21509
# linkname: structure
# uuid: 8a404caa-94ca-4a0b-987e-181c75463547
# label: Si
# description:
# A silicon structure
# 
# 
# type: uuid: 6715092a-107c-4ec5-9b2f-ad95ebbce1c8 (pk: 21510)
# pk: 21510
# linkname: parameters
# uuid: 6715092a-107c-4ec5-9b2f-ad95ebbce1c8
# label: 
# description:
# 
# 
# type: uuid: 8cf12c7b-0238-4d1a-828b-2e435ddfacef (pk: 21511)
# pk: 21511
# linkname: kpoints
# uuid: 8cf12c7b-0238-4d1a-828b-2e435ddfacef
# label: 
# description:
# 
# 
# type: uuid: 4932c172-1e67-4d56-ab89-37377da3d4c0 (pk: 21508)
# pk: 21508
# linkname: pseudo__Si
# uuid: 4932c172-1e67-4d56-ab89-37377da3d4c0
# label: 
# description:
# 
# END OF HEADER
%BLOCK LATTICE_CART
      2.6954645000       2.6954645000       0.0000000000
      2.6954645000       0.0000000000       2.6954645000
      0.0000000000       2.6954645000       2.6954645000
%ENDBLOCK LATTICE_CART
%BLOCK POSITIONS_ABS
Si                       0.0000000000       0.0000000000       0.0000000000
Si                       1.3477322500       1.3477322500       1.3477322500
%ENDBLOCK POSITIONS_ABS
kpoints_mp_grid     : 4 4 4
snap_to_symmetry    : True
symmetry_generate   : True
%BLOCK SPECIES_POT
Si    C9
%ENDBLOCK SPECIES_POT