##### Generated by aiida_castep 08:52:41 06/11/2021 GMT #####
#         author: Bonan Zhu (bz240@cam.ac.uk)
# # AiiDA User: Bonan Zhu (bonan.zhu@ucl.ac.uk)
# AiiDA profile: demo
# Information of the calculation node
# label: Si SINGLEPOINT
# description:
#
## Information of input nodes used:
#
# type: uuid: e7d8de84-e1c4-4b6f-bad2-50a93bc8e8e5 (pk: 6097)
# pk: 6097
# linkname: structure
# uuid: e7d8de84-e1c4-4b6f-bad2-50a93bc8e8e5
# label: Si
# description:
# A silicon structure
#
#
# type: uuid: 98fd275b-9513-4318-8895-21658d316630 (pk: 6108)
# pk: 6108
# linkname: settings
# uuid: 98fd275b-9513-4318-8895-21658d316630
# label:
# description:
#
#
# type: uuid: 2b0081da-5711-4dcb-8e68-b758a8c2a3e2 (pk: 6109)
# pk: 6109
# linkname: parameters
# uuid: 2b0081da-5711-4dcb-8e68-b758a8c2a3e2
# label:
# description:
#
#
# type: uuid: ac1bf789-cbac-4623-a2cd-dd81a9a36b50 (pk: 6107)
# pk: 6107
# linkname: kpoints
# uuid: ac1bf789-cbac-4623-a2cd-dd81a9a36b50
# label:
# description:
#
#
# type: uuid: ca9d4083-e96e-4b12-a02a-81a6a4c34929 (pk: 32)
# pk: 32
# linkname: pseudo__Si
# uuid: ca9d4083-e96e-4b12-a02a-81a6a4c34929
# label: C19
# description:
#
# END OF HEADER
%BLOCK LATTICE_CART
      2.6954645000       2.6954645000       0.0000000000
      2.6954645000       0.0000000000       2.6954645000
      0.0000000000       2.6954645000       2.6954645000
%ENDBLOCK LATTICE_CART
%BLOCK POSITIONS_ABS
Si                       0.0000000000       0.0000000000       0.0000000000
Si                       1.3477322500       1.3477322500       1.3477322500
%ENDBLOCK POSITIONS_ABS
kpoints_mp_grid     : 5 5 5
snap_to_symmetry    : True
symmetry_generate   : True
%BLOCK SPECIES_POT
Si    C19
%ENDBLOCK SPECIES_POT
