
%block lattice_abc
ang
10 10 10
90 90 90 ! alpha beta gamma in degrees
%endblock lattice_abc

%block positions_abs
ang
N 5.00 5.00 5.00
N 6.15 5.00 5.00
%endblock positions_abs

kpoints_mp_grid 1 1 1

fix_com = true
fix_all_cell = true 

%BLOCK SPECIES_POT
N QC5
%ENDBLOCK SPECIES_POT

