##### Generated by aiida_castep 17:51:26 29/11/2019 GMT #####
#         author: Bonan Zhu (bz240@cam.ac.uk)
# # AiiDA User: Bonan Zhu (bz240@cam.ac.uk)
# AiiDA profile: demo
# Information of the calculation node
# label: Si SINGLEPOINT
# description:
# A Example CASTEP calculation for silicon
# 
## Information of input nodes used:
# 
# type: uuid: aab173e2-a1c6-431d-9b95-d0bb3ef61cc1 (pk: 21479)
# pk: 21479
# linkname: structure
# uuid: aab173e2-a1c6-431d-9b95-d0bb3ef61cc1
# label: Si
# description:
# A silicon structure
# 
# 
# type: uuid: f9aa9f10-6fda-4cca-8c3c-0809288dafe5 (pk: 21480)
# pk: 21480
# linkname: parameters
# uuid: f9aa9f10-6fda-4cca-8c3c-0809288dafe5
# label: 
# description:
# 
# 
# type: uuid: 050051af-173b-4e70-b0b1-239b6bebfa2d (pk: 21481)
# pk: 21481
# linkname: kpoints
# uuid: 050051af-173b-4e70-b0b1-239b6bebfa2d
# label: 
# description:
# 
# 
# type: uuid: 99cdc6fc-efde-4c89-a0d2-ba6b48feaa1a (pk: 21478)
# pk: 21478
# linkname: pseudo__Si
# uuid: 99cdc6fc-efde-4c89-a0d2-ba6b48feaa1a
# label: 
# description:
# 
# END OF HEADER
%BLOCK LATTICE_CART
      2.6954645000       2.6954645000       0.0000000000
      2.6954645000       0.0000000000       2.6954645000
      0.0000000000       2.6954645000       2.6954645000
%ENDBLOCK LATTICE_CART
%BLOCK POSITIONS_ABS
Si                       0.0000000000       0.0000000000       0.0000000000
Si                       1.3477322500       1.3477322500       1.3477322500
%ENDBLOCK POSITIONS_ABS
kpoints_mp_grid     : 4 4 4
snap_to_symmetry    : True
symmetry_generate   : True
%BLOCK SPECIES_POT
Si    C9
%ENDBLOCK SPECIES_POT